p tdp 73 72
64 27
44 21
39 67
15 40
71 57
39 30
17 28
73 34
38 34
71 53
35 66
25 38
20 24
62 72
46 17
45 8
67 43
9 19
20 4
57 7
37 11
20 31
59 58
49 6
46 32
14 61
55 52
8 14
3 68
58 11
1 33
4 64
69 53
35 47
36 67
30 9
42 56
50 67
44 62
2 52
66 4
52 15
15 1
57 59
63 59
26 67
22 60
65 5
16 24
29 44
60 25
13 32
3 52
70 42
61 54
4 23
48 45
73 12
38 10
33 61
63 18
46 26
26 41
31 62
60 50
8 56
49 33
58 65
51 23
3 41
37 45
15 72
